peakDumbCharging = 22200; 
Machine = anon_enum(16); 
machineSpeed = [3700,3700,3700,3700,3700,3700,3700,3700,3700,3700,3700,3700,3700,3700,3700,3700]; 
machineLoad = [3700,3700,3700,3700,3700,3700,3700,3700,3700,3700,3700,3700,3700,3700,3700,3700]; 
Car = anon_enum(25); 
demandCar = [1680,3160,200,7560,7840,1000,7960,6360,7560,11040,9640,1600,2040,4040,4440,22960,4240,3040,480,8400,6320,9880,9600,4480,24680]; 
arrivalCar = [64,53,53,53,48,47,47,46,46,45,41,40,40,39,38,38,38,37,36,36,35,35,34,32,23]; 
departureCar = [65,56,54,57,52,49,50,49,49,50,44,42,42,41,41,47,42,40,37,39,39,41,40,36,49]; 
